
Gurobi 8.1.1 (linux64, Python) logging started Mon Nov  6 19:43:25 2023

Academic license - for non-commercial use only

Gurobi 8.1.1 (linux64, Python) logging started Mon Nov  6 19:43:46 2023

Academic license - for non-commercial use only

Gurobi 8.1.1 (linux64, Python) logging started Tue Nov  7 13:56:59 2023

Academic license - for non-commercial use only

Gurobi 8.1.1 (linux64, Python) logging started Tue Nov  7 14:23:41 2023

Academic license - for non-commercial use only

Gurobi 8.1.1 (linux64, Python) logging started Tue Nov  7 14:31:34 2023

Academic license - for non-commercial use only

Gurobi 8.1.1 (linux64, Python) logging started Tue Nov  7 14:40:23 2023

Academic license - for non-commercial use only

Gurobi 8.1.1 (linux64, Python) logging started Tue Nov  7 14:50:54 2023

Academic license - for non-commercial use only

Gurobi 8.1.1 (linux64, Python) logging started Tue Nov  7 14:59:27 2023

Academic license - for non-commercial use only

Gurobi 8.1.1 (linux64, Python) logging started Tue Nov  7 15:05:19 2023

Academic license - for non-commercial use only

Gurobi 8.1.1 (linux64, Python) logging started Tue Nov  7 15:14:43 2023

Academic license - for non-commercial use only

Gurobi 8.1.1 (linux64, Python) logging started Tue Nov  7 15:21:49 2023

Academic license - for non-commercial use only

Gurobi 8.1.1 (linux64, Python) logging started Tue Nov  7 15:29:01 2023

Academic license - for non-commercial use only

Gurobi 8.1.1 (linux64, Python) logging started Tue Nov  7 15:35:42 2023

Academic license - for non-commercial use only

Gurobi 8.1.1 (linux64, Python) logging started Tue Nov  7 15:46:17 2023

Academic license - for non-commercial use only

Gurobi 8.1.1 (linux64, Python) logging started Tue Nov  7 15:53:13 2023

Academic license - for non-commercial use only

Gurobi 8.1.1 (linux64, Python) logging started Tue Nov  7 16:02:50 2023

Academic license - for non-commercial use only

Gurobi 8.1.1 (linux64, Python) logging started Tue Nov  7 18:00:16 2023

Academic license - for non-commercial use only

Gurobi 8.1.1 (linux64, Python) logging started Tue Nov  7 18:06:27 2023

Academic license - for non-commercial use only

Gurobi 8.1.1 (linux64, Python) logging started Tue Nov  7 18:06:58 2023

Academic license - for non-commercial use only

Gurobi 8.1.1 (linux64, Python) logging started Tue Nov  7 18:10:07 2023

Academic license - for non-commercial use only

Gurobi 8.1.1 (linux64, Python) logging started Wed Nov  8 15:39:58 2023

Academic license - for non-commercial use only

Gurobi 8.1.1 (linux64, Python) logging started Wed Nov  8 15:50:26 2023

Academic license - for non-commercial use only

Gurobi 8.1.1 (linux64, Python) logging started Wed Nov  8 15:53:25 2023

Academic license - for non-commercial use only

Gurobi 8.1.1 (linux64, Python) logging started Wed Nov  8 16:03:56 2023

Academic license - for non-commercial use only

Gurobi 8.1.1 (linux64, Python) logging started Wed Nov  8 16:06:44 2023

Academic license - for non-commercial use only

Gurobi 8.1.1 (linux64, Python) logging started Wed Nov  8 16:07:40 2023

Academic license - for non-commercial use only

Gurobi 8.1.1 (linux64, Python) logging started Wed Nov  8 16:08:26 2023

Academic license - for non-commercial use only

Gurobi 8.1.1 (linux64, Python) logging started Wed Nov  8 16:08:53 2023

Academic license - for non-commercial use only

Gurobi 8.1.1 (linux64, Python) logging started Wed Nov  8 16:10:09 2023

Academic license - for non-commercial use only

Gurobi 8.1.1 (linux64, Python) logging started Wed Nov  8 16:12:09 2023

Academic license - for non-commercial use only

Gurobi 8.1.1 (linux64, Python) logging started Wed Nov  8 16:13:01 2023

Academic license - for non-commercial use only

Gurobi 8.1.1 (linux64, Python) logging started Wed Nov  8 16:17:13 2023

Academic license - for non-commercial use only

Gurobi 8.1.1 (linux64, Python) logging started Wed Nov  8 16:17:37 2023

Academic license - for non-commercial use only

Gurobi 8.1.1 (linux64, Python) logging started Wed Nov  8 16:27:38 2023

Academic license - for non-commercial use only

Gurobi 8.1.1 (linux64, Python) logging started Wed Nov  8 16:27:54 2023

Academic license - for non-commercial use only

Gurobi 8.1.1 (linux64, Python) logging started Wed Nov  8 16:28:49 2023

Academic license - for non-commercial use only

Gurobi 8.1.1 (linux64, Python) logging started Wed Nov  8 16:30:02 2023

Academic license - for non-commercial use only

Gurobi 8.1.1 (linux64, Python) logging started Wed Nov  8 16:30:43 2023

Academic license - for non-commercial use only

Gurobi 8.1.1 (linux64, Python) logging started Wed Nov  8 16:31:53 2023

Academic license - for non-commercial use only

Gurobi 8.1.1 (linux64, Python) logging started Wed Nov  8 16:34:18 2023

Academic license - for non-commercial use only

Gurobi 8.1.1 (linux64, Python) logging started Wed Nov  8 16:34:54 2023

Academic license - for non-commercial use only

Gurobi 8.1.1 (linux64, Python) logging started Wed Nov  8 16:35:12 2023

Academic license - for non-commercial use only

Gurobi 8.1.1 (linux64, Python) logging started Wed Nov  8 16:37:53 2023

Academic license - for non-commercial use only

Gurobi 8.1.1 (linux64, Python) logging started Wed Nov  8 16:39:10 2023

Academic license - for non-commercial use only

Gurobi 8.1.1 (linux64, Python) logging started Wed Nov  8 16:52:52 2023

Academic license - for non-commercial use only

Gurobi 8.1.1 (linux64, Python) logging started Wed Nov  8 16:56:00 2023

Academic license - for non-commercial use only

Gurobi 8.1.1 (linux64, Python) logging started Wed Nov  8 17:01:20 2023

Academic license - for non-commercial use only

Gurobi 8.1.1 (linux64, Python) logging started Wed Nov  8 17:03:12 2023

Academic license - for non-commercial use only

Gurobi 8.1.1 (linux64, Python) logging started Wed Nov  8 17:19:51 2023

Academic license - for non-commercial use only

Gurobi 8.1.1 (linux64, Python) logging started Wed Nov  8 17:21:52 2023

Academic license - for non-commercial use only

Gurobi 8.1.1 (linux64, Python) logging started Sat Nov 11 16:45:43 2023

Academic license - for non-commercial use only

Gurobi 8.1.1 (linux64, Python) logging started Thu Nov 23 14:28:41 2023

Academic license - for non-commercial use only

Gurobi 8.1.1 (linux64, Python) logging started Thu Nov 23 14:29:32 2023

Academic license - for non-commercial use only

Gurobi 8.1.1 (linux64, Python) logging started Thu Nov 23 14:35:05 2023

Academic license - for non-commercial use only

Gurobi 8.1.1 (linux64, Python) logging started Thu Nov 23 15:20:36 2023

Academic license - for non-commercial use only

Gurobi 8.1.1 (linux64, Python) logging started Thu Nov 23 15:20:59 2023

Academic license - for non-commercial use only

Gurobi 8.1.1 (linux64, Python) logging started Thu Nov 23 15:21:55 2023

Academic license - for non-commercial use only
